data/lp_files/q3/50_7.lp
\ Model foo
\ LP format - for model browsing. Use MPS format to capture full model detail.
Minimize
  z
Subject To
 allocateEach[1]: x[1,1] + x[2,1] + x[3,1] = 1
 allocateEach[2]: x[1,2] + x[2,2] + x[3,2] = 1
 allocateEach[3]: x[1,3] + x[2,3] + x[3,3] = 1
 allocateEach[4]: x[1,4] + x[2,4] + x[3,4] = 1
 allocateEach[5]: x[1,5] + x[2,5] + x[3,5] = 1
 allocateEach[6]: x[1,6] + x[2,6] + x[3,6] = 1
 allocateEach[7]: x[1,7] + x[2,7] + x[3,7] = 1
 allocateEach[8]: x[1,8] + x[2,8] + x[3,8] = 1
 allocateEach[9]: x[1,9] + x[2,9] + x[3,9] = 1
 allocateEach[10]: x[1,10] + x[2,10] + x[3,10] = 1
 allocateAllCash: cashProportion[1] + cashProportion[2] + cashProportion[3]
   = 1
 findWorstP[1,2]: z + 0.099601593625498 cashProportion[1]
   - 0.099601593625498 cashProportion[2] + 0.0492197875166003 x[1,1]
   + 0.112300796812749 x[1,2] + 0.1591301460823373 x[1,3]
   + 0.0780378486055777 x[1,4] + 0.0733565737051793 x[1,5]
   + 0.098738379814077 x[1,6] + 0.0925796812749004 x[1,7]
   + 0.0968791500664011 x[1,8] + 0.0195551128818061 x[1,9]
   + 0.1206009296148739 x[1,10] - 0.0492197875166003 x[2,1]
   - 0.112300796812749 x[2,2] - 0.1591301460823373 x[2,3]
   - 0.0780378486055777 x[2,4] - 0.0733565737051793 x[2,5]
   - 0.098738379814077 x[2,6] - 0.0925796812749004 x[2,7]
   - 0.0968791500664011 x[2,8] - 0.0195551128818061 x[2,9]
   - 0.1206009296148739 x[2,10] >= 0
 findWorstP[1,3]: z + 0.099601593625498 cashProportion[1]
   - 0.099601593625498 cashProportion[3] + 0.0492197875166003 x[1,1]
   + 0.112300796812749 x[1,2] + 0.1591301460823373 x[1,3]
   + 0.0780378486055777 x[1,4] + 0.0733565737051793 x[1,5]
   + 0.098738379814077 x[1,6] + 0.0925796812749004 x[1,7]
   + 0.0968791500664011 x[1,8] + 0.0195551128818061 x[1,9]
   + 0.1206009296148739 x[1,10] - 0.0492197875166003 x[3,1]
   - 0.112300796812749 x[3,2] - 0.1591301460823373 x[3,3]
   - 0.0780378486055777 x[3,4] - 0.0733565737051793 x[3,5]
   - 0.098738379814077 x[3,6] - 0.0925796812749004 x[3,7]
   - 0.0968791500664011 x[3,8] - 0.0195551128818061 x[3,9]
   - 0.1206009296148739 x[3,10] >= 0
 findWorstP[2,1]: z - 0.0789432135150782 cashProportion[1]
   + 0.0789432135150782 cashProportion[2] - 0.0967449081627283 x[1,1]
   - 0.1174806589126888 x[1,2] - 0.0799957896952792 x[1,3]
   - 0.0321167306983843 x[1,4] - 0.1124414504499763 x[1,5]
   - 0.0580101047313299 x[1,6] - 0.0604310299457923 x[1,7]
   - 0.1246776485448134 x[1,8] - 0.1260854691858323 x[1,9]
   - 0.1130729961580969 x[1,10] + 0.0967449081627283 x[2,1]
   + 0.1174806589126888 x[2,2] + 0.0799957896952792 x[2,3]
   + 0.0321167306983843 x[2,4] + 0.1124414504499763 x[2,5]
   + 0.0580101047313299 x[2,6] + 0.0604310299457923 x[2,7]
   + 0.1246776485448134 x[2,8] + 0.1260854691858323 x[2,9]
   + 0.1130729961580969 x[2,10] >= 0
 findWorstP[2,3]: z + 0.0789432135150782 cashProportion[2]
   - 0.0789432135150782 cashProportion[3] + 0.0967449081627283 x[2,1]
   + 0.1174806589126888 x[2,2] + 0.0799957896952792 x[2,3]
   + 0.0321167306983843 x[2,4] + 0.1124414504499763 x[2,5]
   + 0.0580101047313299 x[2,6] + 0.0604310299457923 x[2,7]
   + 0.1246776485448134 x[2,8] + 0.1260854691858323 x[2,9]
   + 0.1130729961580969 x[2,10] - 0.0967449081627283 x[3,1]
   - 0.1174806589126888 x[3,2] - 0.0799957896952792 x[3,3]
   - 0.0321167306983843 x[3,4] - 0.1124414504499763 x[3,5]
   - 0.0580101047313299 x[3,6] - 0.0604310299457923 x[3,7]
   - 0.1246776485448134 x[3,8] - 0.1260854691858323 x[3,9]
   - 0.1130729961580969 x[3,10] >= 0
 findWorstP[3,1]: z - 0.0920880976133835 cashProportion[1]
   + 0.0920880976133835 cashProportion[3] - 0.0668406108510475 x[1,1]
   - 0.1073286777683985 x[1,2] - 0.1404190008441409 x[1,3]
   - 0.0705394827718517 x[1,4] - 0.0798250326145346 x[1,5]
   - 0.1225385618908756 x[1,6] - 0.0241117335584376 x[1,7]
   - 0.0146113114879902 x[1,8] - 0.1414166219016192 x[1,9]
   - 0.1402808686977208 x[1,10] + 0.0668406108510475 x[3,1]
   + 0.1073286777683985 x[3,2] + 0.1404190008441409 x[3,3]
   + 0.0705394827718517 x[3,4] + 0.0798250326145346 x[3,5]
   + 0.1225385618908756 x[3,6] + 0.0241117335584376 x[3,7]
   + 0.0146113114879902 x[3,8] + 0.1414166219016192 x[3,9]
   + 0.1402808686977208 x[3,10] >= 0
 findWorstP[3,2]: z - 0.0920880976133835 cashProportion[2]
   + 0.0920880976133835 cashProportion[3] - 0.0668406108510475 x[2,1]
   - 0.1073286777683985 x[2,2] - 0.1404190008441409 x[2,3]
   - 0.0705394827718517 x[2,4] - 0.0798250326145346 x[2,5]
   - 0.1225385618908756 x[2,6] - 0.0241117335584376 x[2,7]
   - 0.0146113114879902 x[2,8] - 0.1414166219016192 x[2,9]
   - 0.1402808686977208 x[2,10] + 0.0668406108510475 x[3,1]
   + 0.1073286777683985 x[3,2] + 0.1404190008441409 x[3,3]
   + 0.0705394827718517 x[3,4] + 0.0798250326145346 x[3,5]
   + 0.1225385618908756 x[3,6] + 0.0241117335584376 x[3,7]
   + 0.0146113114879902 x[3,8] + 0.1414166219016192 x[3,9]
   + 0.1402808686977208 x[3,10] >= 0
Bounds
 z <= 1
 -infinity <= cashProportion[1] <= 1
 -infinity <= cashProportion[2] <= 1
 -infinity <= cashProportion[3] <= 1
Binaries
 x[1,1] x[1,2] x[1,3] x[1,4] x[1,5] x[1,6] x[1,7] x[1,8] x[1,9] x[1,10]
 x[2,1] x[2,2] x[2,3] x[2,4] x[2,5] x[2,6] x[2,7] x[2,8] x[2,9] x[2,10]
 x[3,1] x[3,2] x[3,3] x[3,4] x[3,5] x[3,6] x[3,7] x[3,8] x[3,9] x[3,10]
End
