data/mps_files/q3/50_7.mps
NAME foo
ROWS
 N  OBJ
 E  allocateEach[1]
 E  allocateEach[2]
 E  allocateEach[3]
 E  allocateEach[4]
 E  allocateEach[5]
 E  allocateEach[6]
 E  allocateEach[7]
 E  allocateEach[8]
 E  allocateEach[9]
 E  allocateEach[10]
 E  allocateAllCash
 G  findWorstP[1,2]
 G  findWorstP[1,3]
 G  findWorstP[2,1]
 G  findWorstP[2,3]
 G  findWorstP[3,1]
 G  findWorstP[3,2]
COLUMNS
    z         OBJ       1
    z         findWorstP[1,2]  1
    z         findWorstP[1,3]  1
    z         findWorstP[2,1]  1
    z         findWorstP[2,3]  1
    z         findWorstP[3,1]  1
    z         findWorstP[3,2]  1
    cashProportion[1]  allocateAllCash  1
    cashProportion[1]  findWorstP[1,2]  9.9601593625498031e-02
    cashProportion[1]  findWorstP[1,3]  9.9601593625498031e-02
    cashProportion[1]  findWorstP[2,1]  -7.8943213515078159e-02
    cashProportion[1]  findWorstP[3,1]  -9.2088097613383491e-02
    cashProportion[2]  allocateAllCash  1
    cashProportion[2]  findWorstP[1,2]  -9.9601593625498031e-02
    cashProportion[2]  findWorstP[2,1]  7.8943213515078159e-02
    cashProportion[2]  findWorstP[2,3]  7.8943213515078159e-02
    cashProportion[2]  findWorstP[3,2]  -9.2088097613383491e-02
    cashProportion[3]  allocateAllCash  1
    cashProportion[3]  findWorstP[1,3]  -9.9601593625498031e-02
    cashProportion[3]  findWorstP[2,3]  -7.8943213515078159e-02
    cashProportion[3]  findWorstP[3,1]  9.2088097613383491e-02
    cashProportion[3]  findWorstP[3,2]  9.2088097613383491e-02
    MARKER    'MARKER'                 'INTORG'
    x[1,1]    allocateEach[1]  1
    x[1,1]    findWorstP[1,2]  4.9219787516600270e-02
    x[1,1]    findWorstP[1,3]  4.9219787516600270e-02
    x[1,1]    findWorstP[2,1]  -9.6744908162728266e-02
    x[1,1]    findWorstP[3,1]  -0.0668406108510475
    x[1,2]    allocateEach[2]  1
    x[1,2]    findWorstP[1,2]  1.1230079681274902e-01
    x[1,2]    findWorstP[1,3]  1.1230079681274902e-01
    x[1,2]    findWorstP[2,1]  -1.1748065891268882e-01
    x[1,2]    findWorstP[3,1]  -1.0732867776839845e-01
    x[1,3]    allocateEach[3]  1
    x[1,3]    findWorstP[1,2]  1.5913014608233733e-01
    x[1,3]    findWorstP[1,3]  1.5913014608233733e-01
    x[1,3]    findWorstP[2,1]  -7.9995789695279193e-02
    x[1,3]    findWorstP[3,1]  -1.4041900084414091e-01
    x[1,4]    allocateEach[4]  1
    x[1,4]    findWorstP[1,2]  0.0780378486055777
    x[1,4]    findWorstP[1,3]  0.0780378486055777
    x[1,4]    findWorstP[2,1]  -0.0321167306983843
    x[1,4]    findWorstP[3,1]  -7.0539482771851750e-02
    x[1,5]    allocateEach[5]  1
    x[1,5]    findWorstP[1,2]  0.0733565737051793
    x[1,5]    findWorstP[1,3]  0.0733565737051793
    x[1,5]    findWorstP[2,1]  -1.1244145044997632e-01
    x[1,5]    findWorstP[3,1]  -7.9825032614534580e-02
    x[1,6]    allocateEach[6]  1
    x[1,6]    findWorstP[1,2]  9.8738379814077029e-02
    x[1,6]    findWorstP[1,3]  9.8738379814077029e-02
    x[1,6]    findWorstP[2,1]  -5.8010104731329934e-02
    x[1,6]    findWorstP[3,1]  -1.2253856189087561e-01
    x[1,7]    allocateEach[7]  1
    x[1,7]    findWorstP[1,2]  0.0925796812749004
    x[1,7]    findWorstP[1,3]  0.0925796812749004
    x[1,7]    findWorstP[2,1]  -6.0431029945792324e-02
    x[1,7]    findWorstP[3,1]  -2.4111733558437574e-02
    x[1,8]    allocateEach[8]  1
    x[1,8]    findWorstP[1,2]  9.6879150066401076e-02
    x[1,8]    findWorstP[1,3]  9.6879150066401076e-02
    x[1,8]    findWorstP[2,1]  -1.2467764854481343e-01
    x[1,8]    findWorstP[3,1]  -1.4611311487990180e-02
    x[1,9]    allocateEach[9]  1
    x[1,9]    findWorstP[1,2]  1.9555112881806110e-02
    x[1,9]    findWorstP[1,3]  1.9555112881806110e-02
    x[1,9]    findWorstP[2,1]  -1.2608546918583233e-01
    x[1,9]    findWorstP[3,1]  -1.4141662190161922e-01
    x[1,10]   allocateEach[10]  1
    x[1,10]   findWorstP[1,2]  1.2060092961487386e-01
    x[1,10]   findWorstP[1,3]  1.2060092961487386e-01
    x[1,10]   findWorstP[2,1]  -1.1307299615809695e-01
    x[1,10]   findWorstP[3,1]  -1.4028086869772083e-01
    x[2,1]    allocateEach[1]  1
    x[2,1]    findWorstP[1,2]  -4.9219787516600270e-02
    x[2,1]    findWorstP[2,1]  9.6744908162728266e-02
    x[2,1]    findWorstP[2,3]  9.6744908162728266e-02
    x[2,1]    findWorstP[3,2]  -0.0668406108510475
    x[2,2]    allocateEach[2]  1
    x[2,2]    findWorstP[1,2]  -1.1230079681274902e-01
    x[2,2]    findWorstP[2,1]  1.1748065891268882e-01
    x[2,2]    findWorstP[2,3]  1.1748065891268882e-01
    x[2,2]    findWorstP[3,2]  -1.0732867776839845e-01
    x[2,3]    allocateEach[3]  1
    x[2,3]    findWorstP[1,2]  -1.5913014608233733e-01
    x[2,3]    findWorstP[2,1]  7.9995789695279193e-02
    x[2,3]    findWorstP[2,3]  7.9995789695279193e-02
    x[2,3]    findWorstP[3,2]  -1.4041900084414091e-01
    x[2,4]    allocateEach[4]  1
    x[2,4]    findWorstP[1,2]  -0.0780378486055777
    x[2,4]    findWorstP[2,1]  0.0321167306983843
    x[2,4]    findWorstP[2,3]  0.0321167306983843
    x[2,4]    findWorstP[3,2]  -7.0539482771851750e-02
    x[2,5]    allocateEach[5]  1
    x[2,5]    findWorstP[1,2]  -0.0733565737051793
    x[2,5]    findWorstP[2,1]  1.1244145044997632e-01
    x[2,5]    findWorstP[2,3]  1.1244145044997632e-01
    x[2,5]    findWorstP[3,2]  -7.9825032614534580e-02
    x[2,6]    allocateEach[6]  1
    x[2,6]    findWorstP[1,2]  -9.8738379814077029e-02
    x[2,6]    findWorstP[2,1]  5.8010104731329934e-02
    x[2,6]    findWorstP[2,3]  5.8010104731329934e-02
    x[2,6]    findWorstP[3,2]  -1.2253856189087561e-01
    x[2,7]    allocateEach[7]  1
    x[2,7]    findWorstP[1,2]  -0.0925796812749004
    x[2,7]    findWorstP[2,1]  6.0431029945792324e-02
    x[2,7]    findWorstP[2,3]  6.0431029945792324e-02
    x[2,7]    findWorstP[3,2]  -2.4111733558437574e-02
    x[2,8]    allocateEach[8]  1
    x[2,8]    findWorstP[1,2]  -9.6879150066401076e-02
    x[2,8]    findWorstP[2,1]  1.2467764854481343e-01
    x[2,8]    findWorstP[2,3]  1.2467764854481343e-01
    x[2,8]    findWorstP[3,2]  -1.4611311487990180e-02
    x[2,9]    allocateEach[9]  1
    x[2,9]    findWorstP[1,2]  -1.9555112881806110e-02
    x[2,9]    findWorstP[2,1]  1.2608546918583233e-01
    x[2,9]    findWorstP[2,3]  1.2608546918583233e-01
    x[2,9]    findWorstP[3,2]  -1.4141662190161922e-01
    x[2,10]   allocateEach[10]  1
    x[2,10]   findWorstP[1,2]  -1.2060092961487386e-01
    x[2,10]   findWorstP[2,1]  1.1307299615809695e-01
    x[2,10]   findWorstP[2,3]  1.1307299615809695e-01
    x[2,10]   findWorstP[3,2]  -1.4028086869772083e-01
    x[3,1]    allocateEach[1]  1
    x[3,1]    findWorstP[1,3]  -4.9219787516600270e-02
    x[3,1]    findWorstP[2,3]  -9.6744908162728266e-02
    x[3,1]    findWorstP[3,1]  0.0668406108510475
    x[3,1]    findWorstP[3,2]  0.0668406108510475
    x[3,2]    allocateEach[2]  1
    x[3,2]    findWorstP[1,3]  -1.1230079681274902e-01
    x[3,2]    findWorstP[2,3]  -1.1748065891268882e-01
    x[3,2]    findWorstP[3,1]  1.0732867776839845e-01
    x[3,2]    findWorstP[3,2]  1.0732867776839845e-01
    x[3,3]    allocateEach[3]  1
    x[3,3]    findWorstP[1,3]  -1.5913014608233733e-01
    x[3,3]    findWorstP[2,3]  -7.9995789695279193e-02
    x[3,3]    findWorstP[3,1]  1.4041900084414091e-01
    x[3,3]    findWorstP[3,2]  1.4041900084414091e-01
    x[3,4]    allocateEach[4]  1
    x[3,4]    findWorstP[1,3]  -0.0780378486055777
    x[3,4]    findWorstP[2,3]  -0.0321167306983843
    x[3,4]    findWorstP[3,1]  7.0539482771851750e-02
    x[3,4]    findWorstP[3,2]  7.0539482771851750e-02
    x[3,5]    allocateEach[5]  1
    x[3,5]    findWorstP[1,3]  -0.0733565737051793
    x[3,5]    findWorstP[2,3]  -1.1244145044997632e-01
    x[3,5]    findWorstP[3,1]  7.9825032614534580e-02
    x[3,5]    findWorstP[3,2]  7.9825032614534580e-02
    x[3,6]    allocateEach[6]  1
    x[3,6]    findWorstP[1,3]  -9.8738379814077029e-02
    x[3,6]    findWorstP[2,3]  -5.8010104731329934e-02
    x[3,6]    findWorstP[3,1]  1.2253856189087561e-01
    x[3,6]    findWorstP[3,2]  1.2253856189087561e-01
    x[3,7]    allocateEach[7]  1
    x[3,7]    findWorstP[1,3]  -0.0925796812749004
    x[3,7]    findWorstP[2,3]  -6.0431029945792324e-02
    x[3,7]    findWorstP[3,1]  2.4111733558437574e-02
    x[3,7]    findWorstP[3,2]  2.4111733558437574e-02
    x[3,8]    allocateEach[8]  1
    x[3,8]    findWorstP[1,3]  -9.6879150066401076e-02
    x[3,8]    findWorstP[2,3]  -1.2467764854481343e-01
    x[3,8]    findWorstP[3,1]  1.4611311487990180e-02
    x[3,8]    findWorstP[3,2]  1.4611311487990180e-02
    x[3,9]    allocateEach[9]  1
    x[3,9]    findWorstP[1,3]  -1.9555112881806110e-02
    x[3,9]    findWorstP[2,3]  -1.2608546918583233e-01
    x[3,9]    findWorstP[3,1]  1.4141662190161922e-01
    x[3,9]    findWorstP[3,2]  1.4141662190161922e-01
    x[3,10]   allocateEach[10]  1
    x[3,10]   findWorstP[1,3]  -1.2060092961487386e-01
    x[3,10]   findWorstP[2,3]  -1.1307299615809695e-01
    x[3,10]   findWorstP[3,1]  1.4028086869772083e-01
    x[3,10]   findWorstP[3,2]  1.4028086869772083e-01
    MARKER    'MARKER'                 'INTEND'
RHS
    RHS1      allocateEach[1]  1
    RHS1      allocateEach[2]  1
    RHS1      allocateEach[3]  1
    RHS1      allocateEach[4]  1
    RHS1      allocateEach[5]  1
    RHS1      allocateEach[6]  1
    RHS1      allocateEach[7]  1
    RHS1      allocateEach[8]  1
    RHS1      allocateEach[9]  1
    RHS1      allocateEach[10]  1
    RHS1      allocateAllCash  1
BOUNDS
 UP BND1      z         1
 MI BND1      cashProportion[1]
 UP BND1      cashProportion[1]  1
 MI BND1      cashProportion[2]
 UP BND1      cashProportion[2]  1
 MI BND1      cashProportion[3]
 UP BND1      cashProportion[3]  1
 BV BND1      x[1,1]  
 BV BND1      x[1,2]  
 BV BND1      x[1,3]  
 BV BND1      x[1,4]  
 BV BND1      x[1,5]  
 BV BND1      x[1,6]  
 BV BND1      x[1,7]  
 BV BND1      x[1,8]  
 BV BND1      x[1,9]  
 BV BND1      x[1,10] 
 BV BND1      x[2,1]  
 BV BND1      x[2,2]  
 BV BND1      x[2,3]  
 BV BND1      x[2,4]  
 BV BND1      x[2,5]  
 BV BND1      x[2,6]  
 BV BND1      x[2,7]  
 BV BND1      x[2,8]  
 BV BND1      x[2,9]  
 BV BND1      x[2,10] 
 BV BND1      x[3,1]  
 BV BND1      x[3,2]  
 BV BND1      x[3,3]  
 BV BND1      x[3,4]  
 BV BND1      x[3,5]  
 BV BND1      x[3,6]  
 BV BND1      x[3,7]  
 BV BND1      x[3,8]  
 BV BND1      x[3,9]  
 BV BND1      x[3,10] 
ENDATA
